Gurobi Optimizer version 9.1.2 build v9.1.2rc0 (linux64)
Thread count: 36 physical cores, 72 logical processors, using up to 32 threads
Optimize a model with 12 rows, 57 columns and 590 nonzeros
Model fingerprint: 0xf32eec78
Model has 47 quadratic constraints
Coefficient statistics:
  Matrix range     [2e-05, 3e+00]
  QMatrix range    [1e+00, 1e+00]
  QLMatrix range   [1e+00, 1e+00]
  Objective range  [8e-03, 7e-01]
  Bounds range     [1e+00, 1e+00]
  RHS range        [1e+00, 1e+00]
Presolve removed 9 rows and 0 columns

Continuous model is non-convex -- solving as a MIP.

Presolve removed 9 rows and 0 columns
Presolve time: 0.00s
Presolved: 189 rows, 57 columns, 443 nonzeros
Presolved model has 47 bilinear constraint(s)
Variable types: 57 continuous, 0 integer (0 binary)

Root relaxation: objective -1.743721e+00, 44 iterations, 0.00 seconds

    Nodes    |    Current Node    |     Objective Bounds      |     Work
 Expl Unexpl |  Obj  Depth IntInf | Incumbent    BestBd   Gap | It/Node Time

     0     0   -1.74372    0   38          -   -1.74372      -     -    0s
H    0     0                       0.6147548   -1.74372   384%     -    0s
     0     0   -1.64739    0    1    0.61475   -1.64739   368%     -    0s
H    0     0                      -1.6450460   -1.64739  0.14%     -    0s
     0     0     cutoff    0        -1.64505   -1.64505  0.00%     -    0s

Cutting planes:
  RLT: 25
  BQP: 3

Explored 1 nodes (76 simplex iterations) in 0.01 seconds
Thread count was 32 (of 72 available processors)

Solution count 2: -1.64505 0.614755 
No other solutions better than -1.64505

Optimal solution found (tolerance 1.00e-04)
Best objective -1.645045978473e+00, best bound -1.645045978473e+00, gap 0.0000%

User-callback calls 78, time in user-callback 0.00 sec
Gurobi Optimizer version 9.1.2 build v9.1.2rc0 (linux64)
Thread count: 36 physical cores, 72 logical processors, using up to 32 threads
Optimize a model with 60 rows, 312 columns and 16100 nonzeros
Model fingerprint: 0x94ce9017
Model has 262 quadratic constraints
Coefficient statistics:
  Matrix range     [4e-07, 7e+00]
  QMatrix range    [1e+00, 1e+00]
  QLMatrix range   [1e+00, 1e+00]
  Objective range  [4e-03, 1e+00]
  Bounds range     [1e+00, 1e+00]
  RHS range        [1e+00, 1e+00]
Presolve removed 16 rows and 0 columns

Continuous model is non-convex -- solving as a MIP.

Presolve removed 16 rows and 0 columns
Presolve time: 0.01s
Presolved: 1080 rows, 312 columns, 13136 nonzeros
Presolved model has 262 bilinear constraint(s)
Variable types: 312 continuous, 0 integer (0 binary)

Root relaxation: objective -2.455411e+01, 309 iterations, 0.01 seconds

    Nodes    |    Current Node    |     Objective Bounds      |     Work
 Expl Unexpl |  Obj  Depth IntInf | Incumbent    BestBd   Gap | It/Node Time

     0     0  -24.55411    0  147          -  -24.55411      -     -    0s
     0     0  -23.34151    0   83          -  -23.34151      -     -    0s
     0     0  -23.30732    0   78          -  -23.30732      -     -    0s
     0     0  -23.23896    0   74          -  -23.23896      -     -    0s
     0     0  -23.23838    0   74          -  -23.23838      -     -    0s
     0     0  -23.22520    0   74          -  -23.22520      -     -    0s
     0     0  -23.22450    0   71          -  -23.22450      -     -    0s
     0     0  -23.22402    0   74          -  -23.22402      -     -    0s
     0     0  -23.22387    0   74          -  -23.22387      -     -    0s
     0     0  -23.22351    0   74          -  -23.22351      -     -    0s
     0     0  -23.22173    0   74          -  -23.22173      -     -    0s
     0     0  -23.22153    0   74          -  -23.22153      -     -    0s
     0     0  -23.22148    0   74          -  -23.22148      -     -    0s
     0     0  -23.22084    0   74          -  -23.22084      -     -    0s
     0     0  -23.22070    0   74          -  -23.22070      -     -    0s
     0     0  -23.22064    0   74          -  -23.22064      -     -    0s
     0     0  -23.22060    0   74          -  -23.22060      -     -    0s
     0     0  -23.22012    0   74          -  -23.22012      -     -    0s
H    0     0                     -21.0696891  -23.22012  10.2%     -    0s
H    0     0                     -21.1093136  -23.22012  10.0%     -    0s
     0     2  -23.22012    0   74  -21.10931  -23.22012  10.0%     -    0s
* 1527  1409              49     -21.1094919  -22.47119  6.45%  51.6    1s
* 1529  1409              47     -21.1095018  -22.47119  6.45%  51.6    1s
* 1696  1525              52     -21.1123134  -22.47119  6.44%  48.7    1s
* 1815  1637              52     -21.1123144  -22.47119  6.44%  47.4    1s
* 1861  1752              49     -21.8736348  -22.47119  2.73%  46.8    1s
* 2479  1868              62     -21.9843947  -22.34670  1.65%  44.7    2s
* 4406  1778              59     -22.0024659  -22.23254  1.05%  39.8    3s
* 4407  1778              59     -22.0024660  -22.23254  1.05%  39.8    3s
* 4681  1718              59     -22.0056382  -22.23254  1.03%  39.5    3s
 11202  1866  -22.00911   18   30  -22.00564  -22.04508  0.18%  31.4    5s
*20489  2464              55     -22.0059117  -22.02427  0.08%  25.5    6s
*25192  2589              59     -22.0059268  -22.02077  0.07%  23.8    7s
 40006  2072     cutoff   36       -22.00593  -22.01229  0.03%  20.4   10s
*53827  1480              56     -22.0059334  -22.00779  0.01%  17.9   11s

Cutting planes:
  RLT: 34
  BQP: 7
  PSD: 101

Explored 54486 nodes (966963 simplex iterations) in 12.00 seconds
Thread count was 32 (of 72 available processors)

Solution count 10: -22.0059 -22.0059 -22.0059 ... -21.1095

Optimal solution found (tolerance 1.00e-04)
Best objective -2.200593001260e+01, best bound -2.200717650594e+01, gap 0.0057%

User-callback calls 109871, time in user-callback 0.02 sec



objective value: -22.00593001259572
objective bound: -22.007176505943814
x_opt: [1.0, 0.9028080835648258, 0.0, 0.3659149477258642, 0.0, 0.0, 1.0, 0.0, 0.0, 0.0, 1.0, 0.0, 1.0, 1.0, 0.40131039507855015, 1.0, 0.0, 1.0, 0.0, 0.0, 0.0, 0.26508642690426565, 0.0, 0.5223347583559078, 0.0, 0.7480091851082242, 0.0, 1.0, 0.0, 0.0, 1.0, 1.0, 0.0, 0.5212330106915413, 1.0, 0.8880368433286195, 0.0, 1.0, 0.0, 1.0, 1.0, 0.0, 0.9992864564407865, 0.11174023540421156, 0.05598563512492296, 1.0062825994367895e-13, 0.4197218212870402, 0.4026581262827184, 0.26982963104752083, 1.0074823784118135e-13]
GUROBI solution time: 12.001177072525024




